letting initialStacks = [27, 2, 10, 35, 20, 37, 51, 23, 48, 50, 28, 46, 16, 9, 32, 1, 49, 41, 44, 36, 22, 17, 19, 13, 47, 5, 4, 31, 34, 12, 42, 43, 25, 14, 15, 30, 45, 24, 29, 18, 21, 39, 3, 26, 7, 40, 38, 11, 8, 33, 6]
